p ds 20 5
1 7
1 8
1 14
1 17
2 3
2 6
2 8
2 14
2 19
3 7
3 13
3 15
3 17
3 20
4 5
4 14
4 15
4 16
5 7
5 11
5 14
5 15
5 16
5 17
5 19
6 10
6 15
6 17
7 9
7 10
7 17
8 11
8 20
9 12
9 14
9 15
9 20
10 12
10 19
11 16
12 14
12 16
13 15
13 16
13 20
14 20
15 19
16 20
17 18
18 20
